\ LP format - for model browsing. Use MPS format to capture full model detail.
Minimize
  52020 x(1,_1) + 21420 x(1,_2) + 74970 x(1,_3) + 113220 x(1,_4)
   + 142290 x(1,_5) + 36480 x(2,_1) + 31920 x(2,_2) + 126160 x(2,_3)
   + 138320 x(2,_4) + 133760 x(2,_5) + 21560 x(3,_1) + 44660 x(3,_2)
   + 56980 x(3,_3) + 144760 x(3,_4) + 132440 x(3,_5) + 35880 x(4,_1)
   + 49680 x(4,_2) + 62100 x(4,_3) + 113160 x(4,_4) + 122820 x(4,_5)
   + 19050 x(5,_1) + 39370 x(5,_2) + 26670 x(5,_3) + 100330 x(5,_4)
   + 111760 x(5,_5) + 54180 x(6,_1) + 63210 x(6,_2) + 83850 x(6,_3)
   + 99330 x(6,_4) + 78690 x(6,_5) + 53280 x(7,_1) + 68820 x(7,_2)
   + 109890 x(7,_3) + 68820 x(7,_4) + 63270 x(7,_5) + 59400 x(8,_1)
   + 66000 x(8,_2) + 57200 x(8,_3) + 83600 x(8,_4) + 53900 x(8,_5)
   + 40300 x(9,_1) + 53300 x(9,_2) + 85800 x(9,_3) + 97500 x(9,_4)
   + 93600 x(9,_5) + 43200 x(10,_1) + 87750 x(10,_2) + 95850 x(10,_3)
   + 81000 x(10,_4) + 112050 x(10,_5)
Subject To
 Site_1_constraint: x(1,_1) + x(1,_2) + x(1,_3) + x(1,_4) + x(1,_5) = 1
 Site_2_constraint: x(2,_1) + x(2,_2) + x(2,_3) + x(2,_4) + x(2,_5) = 1
 Site_3_constraint: x(3,_1) + x(3,_2) + x(3,_3) + x(3,_4) + x(3,_5) = 1
 Site_4_constraint: x(4,_1) + x(4,_2) + x(4,_3) + x(4,_4) + x(4,_5) = 1
 Site_5_constraint: x(5,_1) + x(5,_2) + x(5,_3) + x(5,_4) + x(5,_5) = 1
 Site_6_constraint: x(6,_1) + x(6,_2) + x(6,_3) + x(6,_4) + x(6,_5) = 1
 Site_7_constraint: x(7,_1) + x(7,_2) + x(7,_3) + x(7,_4) + x(7,_5) = 1
 Site_8_constraint: x(8,_1) + x(8,_2) + x(8,_3) + x(8,_4) + x(8,_5) = 1
 Site_9_constraint: x(9,_1) + x(9,_2) + x(9,_3) + x(9,_4) + x(9,_5) = 1
 Site_10_constraint: x(10,_1) + x(10,_2) + x(10,_3) + x(10,_4) + x(10,_5)
   = 1
 Capacity_for_Site_1: 153 x(1,_1) + 152 x(2,_1) + 154 x(3,_1) + 138 x(4,_1)
   + 127 x(5,_1) + 129 x(6,_1) + 111 x(7,_1) + 110 x(8,_1) + 130 x(9,_1)
   + 135 x(10,_1) <= 350
 Capacity_for_Site_2: 153 x(1,_2) + 152 x(2,_2) + 154 x(3,_2) + 138 x(4,_2)
   + 127 x(5,_2) + 129 x(6,_2) + 111 x(7,_2) + 110 x(8,_2) + 130 x(9,_2)
   + 135 x(10,_2) <= 250
 Capacity_for_Site_3: 153 x(1,_3) + 152 x(2,_3) + 154 x(3,_3) + 138 x(4,_3)
   + 127 x(5,_3) + 129 x(6,_3) + 111 x(7,_3) + 110 x(8,_3) + 130 x(9,_3)
   + 135 x(10,_3) <= 500
 Capacity_for_Site_4: 153 x(1,_4) + 152 x(2,_4) + 154 x(3,_4) + 138 x(4,_4)
   + 127 x(5,_4) + 129 x(6,_4) + 111 x(7,_4) + 110 x(8,_4) + 130 x(9,_4)
   + 135 x(10,_4) <= 400
 Capacity_for_Site_5: 153 x(1,_5) + 152 x(2,_5) + 154 x(3,_5) + 138 x(4,_5)
   + 127 x(5,_5) + 129 x(6,_5) + 111 x(7,_5) + 110 x(8,_5) + 130 x(9,_5)
   + 135 x(10,_5) <= 200
Bounds
Binaries
 x(1,_1) x(1,_2) x(1,_3) x(1,_4) x(1,_5) x(2,_1) x(2,_2) x(2,_3) x(2,_4)
 x(2,_5) x(3,_1) x(3,_2) x(3,_3) x(3,_4) x(3,_5) x(4,_1) x(4,_2) x(4,_3)
 x(4,_4) x(4,_5) x(5,_1) x(5,_2) x(5,_3) x(5,_4) x(5,_5) x(6,_1) x(6,_2)
 x(6,_3) x(6,_4) x(6,_5) x(7,_1) x(7,_2) x(7,_3) x(7,_4) x(7,_5) x(8,_1)
 x(8,_2) x(8,_3) x(8,_4) x(8,_5) x(9,_1) x(9,_2) x(9,_3) x(9,_4) x(9,_5)
 x(10,_1) x(10,_2) x(10,_3) x(10,_4) x(10,_5)
End
